NAME: Random_50_3
ELLAPSED_TIME_(ms): 1
TOUR_SIZE: 1037.9685
TOUR_SECTION
0
16
11
12
48
49
21
38
7
36
42
28
24
25
10
44
47
6
39
19
13
15
23
29
33
4
26
9
14
32
37
34
46
8
5
18
22
40
1
2
41
45
35
43
27
20
31
3
30
17
0
EOF
